NAME : PR107C.52657.tour
COMMENT : Cost = 0_52657
COMMENT : Found by LKH [Keld Helsgaun] Sun Sep 17 16:52:42 2017
TYPE : TOUR
DIMENSION : 107
TOUR_SECTION
1
4
7
9
8
12
13
16
15
18
14
17
20
23
24
25
30
26
29
36
37
40
43
46
45
47
49
52
51
54
53
50
56
101
102
99
57
96
94
58
91
92
89
88
85
82
83
80
77
78
75
71
72
69
68
65
67
64
66
63
70
73
62
74
76
61
79
81
60
84
59
86
87
90
93
95
98
97
100
103
105
107
104
55
106
44
48
39
42
41
38
35
32
33
34
31
27
28
22
21
19
11
10
5
2
6
3
-1
EOF
